c
c start with comments
c
p cnf 44 30
-40 -11 0
-6 27 30 7 0
-34 27 -18 0
8 28 -34 38 -36 0
9 18 -36 10 0
44 27 -32 -36 0
-26 3 5 -23 -33 0
34 -37 30 0
-10 31 0
33 -25 0
15 25 0
-26 44 -5 0
22 45 0
20 -35 -4 0
34 11 -26 -41 0
-19 -15 6 0
21 -1 34 0
-8 5 24 24 0
2 30 -21 0
32 19 35 -13 11 -42 0
13 20 -6 0
-38 42 0
1 -43 -33 0
-27 39 -36 0
9 24 -37 0
1 -9 -8 0
-29 26 0
-39 -14 0
-44 8 -21 -12 -37 13 0
-43 17 -18 11 0